116
200
139	1
138	2
137	3
136	1
135	1
134	1
133	2
132	2
131	3
130	2
129	2
128	2
127	1
126	2
125	5
124	1
123	2
122	2
121	4
120	2
119	3
118	2
117	1
116	1
115	4
114	2
113	2
112	4
111	5
110	1
109	3
108	2
107	2
106	2
105	2
104	3
103	2
102	3
101	2
100	8
98	1
97	2
96	2
95	1
94	5
93	2
92	1
91	4
90	2
89	3
88	2
87	4
86	1
85	2
84	3
83	5
81	1
80	1
79	3
78	5
77	3
75	3
74	6
73	1
72	2
71	7
70	3
69	3
68	4
67	4
66	1
65	2
64	2
63	1
62	2
61	3
60	2
59	1
58	3
57	2
56	2
55	5
54	4
52	4
51	1
50	4
49	1
48	2
47	3
46	5
45	3
44	4
43	1
42	1
41	3
40	2
39	6
38	2
37	1
36	2
35	4
34	1
33	2
32	4
31	2
30	4
29	1
28	1
27	1
26	3
25	4
24	4
23	5
22	4
21	1
20	3
